142 38 188 195 124 68 16 45 140 174 14 
20 62 35 66 51 7 33 125 99 128 
48 43 80 148 190 198 129 157 42 46 122 
79 73 181 76 113 155 13 154 98 119 24 179 110 
173 152 184 180 141 8 84 127 105 69 112 9 
199 143 86 52 22 167 116 82 153 34 175 
4 165 168 189 41 61 196 67 185 93 171 
197 104 146 170 183 139 89 30 121 137 
57 130 63 44 27 145 78 149 19 159 186 97 
36 37 58 134 135 11 28 132 200 47 131 
54 107 74 32 70 192 177 178 150 92 126 
136 156 102 91 106 31 50 83 95 103 39 120 96 187 
49 147 23 56 166 85 109 117 81 101 144 123 
88 2 138 164 10 25 193 161 182 194 65 
64 6 111 163 87 191 75 1 26 
114 108 94 151 21 55 17 60 5 162 
169 40 133 72 53 160 158 15 77 
100 12 59 29 90 71 
18 3 115 
172 176 
118 

